objective value:                                    0
r[14,0,6]                            31.0895178068499 	(obj:0)
r[14,1,6]                            30.3418626459598 	(obj:0)
r[14,0,7]                            27.9438366331877 	(obj:0)
r[14,1,7]                            23.3823462305874 	(obj:0)
r[14,0,8]                            24.8818305787449 	(obj:0)
r[14,1,8]                            16.8577995911756 	(obj:0)
r[14,0,9]                            21.9012738853503 	(obj:0)
r[14,1,9]                            10.7410371167272 	(obj:0)
r[15,0,0]                                          76 	(obj:0)
r[15,1,0]                                          83 	(obj:0)
r[15,2,0]                                          69 	(obj:0)
r[15,0,1]                                     71.6597 	(obj:0)
r[15,1,1]                                    72.74935 	(obj:0)
r[15,0,2]                                 67.43485198 	(obj:0)
r[15,1,2]                                63.139365625 	(obj:0)
r[15,0,3]                             63.322384917332 	(obj:0)
r[15,1,3]                            54.1300052734375 	(obj:0)
r[15,0,4]                             59.319309478531 	(obj:0)
r[15,1,4]                            45.6837299438476 	(obj:0)
r[15,0,5]                            34.3211606809636 	(obj:0)
r[15,1,5]                            37.7653468223572 	(obj:0)
r[15,0,6]                            31.0895178068499 	(obj:0)
r[15,1,6]                            30.3418626459598 	(obj:0)
r[15,0,7]                            27.9438366331877 	(obj:0)
r[15,1,7]                            23.3823462305874 	(obj:0)
r[15,0,8]                            24.8818305787449 	(obj:0)
r[15,1,8]                            16.8577995911756 	(obj:0)
r[15,0,9]                            21.9012738853503 	(obj:0)
r[15,1,9]                            10.7410371167272 	(obj:0)
r[16,0,0]                                          76 	(obj:0)
r[16,1,0]                                          83 	(obj:0)
r[16,2,0]                                          69 	(obj:0)
r[16,0,1]                                     71.6597 	(obj:0)
r[16,1,1]                             74.977204216216 	(obj:0)
r[16,2,1]                            7.72781407152051 	(obj:0)
r[16,0,2]                                 67.43485198 	(obj:0)
r[16,1,2]                                63.139365625 	(obj:0)
r[16,2,2]                            6.97380081660439 	(obj:0)
r[16,0,3]                             63.322384917332 	(obj:0)
r[16,1,3]                            54.1300052734375 	(obj:0)
r[16,2,3]                            6.33626883128574 	(obj:0)
r[16,0,4]                             59.319309478531 	(obj:0)
r[16,1,4]                            45.6837299438476 	(obj:0)
r[16,2,4]                            5.90444612026456 	(obj:0)
r[16,0,5]                            34.3211606809636 	(obj:0)
r[16,1,5]                            37.7653468223572 	(obj:0)
r[16,2,5]                            5.76638652381061 	(obj:0)
r[16,0,6]                            31.0895178068499 	(obj:0)
r[16,1,6]                            30.3418626459598 	(obj:0)
r[16,2,6]                            4.90864959875721 	(obj:0)
r[16,0,7]                            27.9438366331877 	(obj:0)
r[16,1,7]                            26.7770208299231 	(obj:0)
r[16,2,7]                            4.54755646764709 	(obj:0)
r[16,0,8]                            24.8818305787449 	(obj:0)
r[16,1,8]                            25.1034570280529 	(obj:0)
r[16,2,8]                            4.45751484958768 	(obj:0)
r[16,0,9]                            21.9012738853503 	(obj:0)
r[16,1,9]                            22.0126082772093 	(obj:0)
r[16,2,9]                            4.14800688799363 	(obj:0)
r[16,0,10]                           5.33096251056765 	(obj:0)
r[16,1,10]                           5.82197221548835 	(obj:0)
r[16,2,10]                           3.87196224451756 	(obj:0)
r[17,0,0]                                          76 	(obj:0)
r[17,1,0]                                          83 	(obj:0)
r[17,2,0]                                          69 	(obj:0)
r[17,0,1]                                     71.6597 	(obj:0)
r[17,1,1]                                    72.74935 	(obj:0)
r[17,0,2]                                 67.43485198 	(obj:0)
r[17,1,2]                                63.139365625 	(obj:0)
r[17,0,3]                             63.322384917332 	(obj:0)
r[17,1,3]                            54.1300052734375 	(obj:0)
r[17,0,4]                             59.319309478531 	(obj:0)
r[17,1,4]                            45.6837299438476 	(obj:0)
r[17,0,5]                            34.3211606809636 	(obj:0)
r[17,1,5]                            37.7653468223572 	(obj:0)
r[17,0,6]                            31.0895178068499 	(obj:0)
r[17,1,6]                            30.3418626459598 	(obj:0)
r[17,0,7]                            27.9438366331877 	(obj:0)
r[17,1,7]                            23.3823462305874 	(obj:0)
r[17,0,8]                            24.8818305787449 	(obj:0)
r[17,1,8]                            16.8577995911756 	(obj:0)
r[17,0,9]                            21.9012738853503 	(obj:0)
r[17,1,9]                            10.7410371167272 	(obj:0)
r[18,0,0]                                          76 	(obj:0)
r[18,1,0]                                          83 	(obj:0)
r[18,2,0]                                          69 	(obj:0)
r[18,0,1]                                     71.6597 	(obj:0)
r[18,1,1]                                    72.74935 	(obj:0)
r[18,0,2]                                 67.43485198 	(obj:0)
r[18,1,2]                                63.139365625 	(obj:0)
r[18,0,3]                             63.322384917332 	(obj:0)
r[18,1,3]                            54.1300052734375 	(obj:0)
r[18,0,4]                             59.319309478531 	(obj:0)
r[18,1,4]                            45.6837299438476 	(obj:0)
r[18,0,5]                            34.3211606809636 	(obj:0)
r[18,1,5]                            37.7653468223572 	(obj:0)
r[18,0,6]                            31.0895178068499 	(obj:0)
r[18,1,6]                            30.3418626459598 	(obj:0)
r[18,0,7]                            27.9438366331877 	(obj:0)
r[18,1,7]                            23.3823462305874 	(obj:0)
r[18,0,8]                            24.8818305787449 	(obj:0)
r[18,1,8]                            16.8577995911756 	(obj:0)
r[18,0,9]                            21.9012738853503 	(obj:0)
r[18,1,9]                            10.7410371167272 	(obj:0)
r[19,0,0]                                          76 	(obj:0)
r[19,1,0]                                          83 	(obj:0)
r[19,2,0]                                          69 	(obj:0)
r[19,0,1]                                     71.6597 	(obj:0)
r[19,1,1]                                    72.74935 	(obj:0)
r[19,2,1]                            4.26733182912665 	(obj:0)
r[19,0,2]                                 67.43485198 	(obj:0)
r[19,1,2]                                63.139365625 	(obj:0)
r[19,2,2]                            3.97857430583399 	(obj:0)
r[19,0,3]                             63.322384917332 	(obj:0)
r[19,1,3]                            54.1300052734375 	(obj:0)
r[19,2,3]                            3.72017090611246 	(obj:0)
r[19,0,4]                             59.319309478531 	(obj:0)
r[19,1,4]                            45.6837299438476 	(obj:0)
r[19,2,4]                            3.64651152217144 	(obj:0)
r[19,0,5]                            34.3211606809636 	(obj:0)
r[19,1,5]                            41.5732511610809 	(obj:0)
r[19,2,5]                            3.42126741763766 	(obj:0)
r[19,0,6]                            31.0895178068499 	(obj:0)
r[19,1,6]                            37.7944636258058 	(obj:0)
r[19,2,6]                            3.21743161082802 	(obj:0)
r[19,0,7]                            27.9438366331877 	(obj:0)
r[19,1,7]                            34.3198107136793 	(obj:0)
r[19,2,7]                            3.03220037132776 	(obj:0)
r[19,0,8]                            24.8818305787449 	(obj:0)
r[19,1,8]                            29.8355079768575 	(obj:0)
r[19,2,8]                            2.86323247201472 	(obj:0)
r[19,0,9]                            21.9012738853503 	(obj:0)
r[19,1,9]                            10.7410371167272 	(obj:0)
y[0,2]                                           1.13 	(obj:0)
y[0,4]                                           1.13 	(obj:0)
y[0,6]                                           1.13 	(obj:0)
y[0,8]                                           1.13 	(obj:0)
y[0,10]                             0.976011194630651 	(obj:0)
y[1,4]                                           1.13 	(obj:0)
y[1,6]                                           1.13 	(obj:0)
y[1,8]                                           1.13 	(obj:0)
y[1,10]                             0.976011194630651 	(obj:0)
y[2,1]                                           1.13 	(obj:0)
y[2,2]                                           1.13 	(obj:0)
y[2,3]                                           1.13 	(obj:0)
y[2,4]                                           1.13 	(obj:0)
y[2,5]                                           1.13 	(obj:0)
y[2,6]                                           1.13 	(obj:0)
y[2,7]                                           1.13 	(obj:0)
y[2,8]                                           1.13 	(obj:0)
y[2,9]                                           1.13 	(obj:0)
y[2,10]                             0.976011194630651 	(obj:0)
y[3,1]                                           1.13 	(obj:0)
y[3,2]                                           1.13 	(obj:0)
y[3,3]                                           1.13 	(obj:0)
y[3,4]                                           1.13 	(obj:0)
y[3,5]                                           1.13 	(obj:0)
y[3,6]                                           1.13 	(obj:0)
y[3,7]                                           1.13 	(obj:0)
y[3,8]                                           1.13 	(obj:0)
y[3,9]                                           1.13 	(obj:0)
y[3,10]                             0.976011194630651 	(obj:0)
y[4,1]                                           1.13 	(obj:0)
y[4,2]                                           1.13 	(obj:0)
y[4,3]                                           1.13 	(obj:0)
y[4,4]                                           1.13 	(obj:0)
y[4,5]                                           1.13 	(obj:0)
y[4,6]                                           1.13 	(obj:0)
y[4,7]                                           1.13 	(obj:0)
y[4,8]                                           1.13 	(obj:0)
y[4,9]                                           1.13 	(obj:0)
y[4,10]                             0.976011194630651 	(obj:0)
y[5,1]                                           1.13 	(obj:0)
y[5,2]                                           1.13 	(obj:0)
y[5,3]                                           1.13 	(obj:0)
y[5,4]                                           1.13 	(obj:0)
y[5,5]                                           1.13 	(obj:0)
y[5,6]                                           1.13 	(obj:0)
y[5,7]                                           1.13 	(obj:0)
y[5,8]                                           1.13 	(obj:0)
y[5,9]                                           1.13 	(obj:0)
y[5,10]                             0.976011194630651 	(obj:0)
y[6,1]                                           1.13 	(obj:0)
y[6,2]                                           1.13 	(obj:0)
y[6,3]                                           1.13 	(obj:0)
y[6,4]                                           1.13 	(obj:0)
y[6,5]                                           1.13 	(obj:0)
y[6,6]                                           1.13 	(obj:0)
y[6,7]                                           1.13 	(obj:0)
y[6,8]                                           1.13 	(obj:0)
y[6,9]                                           1.13 	(obj:0)
y[6,10]                             0.976011194630651 	(obj:0)
y[7,1]                                           1.13 	(obj:0)
y[7,2]                                           1.13 	(obj:0)
y[7,3]                                           1.13 	(obj:0)
y[7,4]                                           1.13 	(obj:0)
y[7,5]                                           1.13 	(obj:0)
y[7,6]                                           1.13 	(obj:0)
y[7,7]                                           1.13 	(obj:0)
y[7,8]                                           1.13 	(obj:0)
y[7,9]                                           1.13 	(obj:0)
y[7,10]                             0.976011194630651 	(obj:0)
y[8,1]                                           1.13 	(obj:0)
y[8,2]                                           1.13 	(obj:0)
y[8,3]                                           1.13 	(obj:0)
y[8,4]                                           1.13 	(obj:0)
y[8,5]                                           1.13 	(obj:0)
y[8,6]                                           1.13 	(obj:0)
y[8,7]                                           1.13 	(obj:0)
y[8,8]                                           1.13 	(obj:0)
y[8,9]                                           1.13 	(obj:0)
y[8,10]                             0.976011194630651 	(obj:0)
y[9,1]                                           1.13 	(obj:0)
y[9,2]                                           1.13 	(obj:0)
y[9,3]                                           1.13 	(obj:0)
y[9,4]                                           1.13 	(obj:0)
y[9,5]                                           1.13 	(obj:0)
y[9,6]                                           1.13 	(obj:0)
y[9,7]                                           1.13 	(obj:0)
y[9,8]                                           1.13 	(obj:0)
y[9,9]                                           1.13 	(obj:0)
y[9,10]                             0.976011194630651 	(obj:0)
y[11,1]                             0.613847393500971 	(obj:0)
y[11,2]                          0.000318013739549042 	(obj:0)
y[11,3]                             0.549893196330461 	(obj:0)
y[11,4]                             0.333970983352726 	(obj:0)
y[11,5]                             0.313757386651886 	(obj:0)
y[11,6]                             0.295421700672176 	(obj:0)
y[11,8]                             0.273383088077784 	(obj:0)
y[11,9]                             0.258568500742238 	(obj:0)
y[11,10]                            0.229839737622936 	(obj:0)
y[12,1]                              1.06196464199649 	(obj:0)
y[12,3]                             0.481063694097136 	(obj:0)
y[12,4]                             0.139443100284893 	(obj:0)
y[12,5]                             0.486672762477247 	(obj:0)
y[12,6]                             0.813189430881694 	(obj:0)
y[12,7]                             0.642448411507883 	(obj:0)
y[12,8]                             0.584817307694735 	(obj:0)
y[12,9]                             0.535356463857876 	(obj:0)
y[12,10]                            0.492492479815629 	(obj:0)
y[16,1]                             0.733582350267526 	(obj:0)
y[16,2]                             0.662005729692156 	(obj:0)
y[16,3]                             0.601486389056835 	(obj:0)
y[16,4]                             0.466585916362384 	(obj:0)
y[16,5]                             0.114797364124103 	(obj:0)
y[16,6]                             0.465966012635649 	(obj:0)
y[16,7]                             0.431688331349108 	(obj:0)
y[16,9]                              0.39376007415012 	(obj:0)
y[16,10]                            0.367555836254927 	(obj:0)
y[19,1]                             0.405087296822892 	(obj:0)
y[19,2]                             0.377676256568299 	(obj:0)
y[19,3]                             0.353146658478792 	(obj:0)
y[19,5]                             0.324772486746764 	(obj:0)
y[19,6]                             0.305422855810486 	(obj:0)
y[19,7]                             0.287839310611549 	(obj:0)
y[19,8]                             0.271799604227484 	(obj:0)
r[0,0,0]                                           62 	(obj:0)
r[0,1,0]                                           82 	(obj:0)
r[0,0,1]                                      55.2135 	(obj:0)
r[0,1,1]                                     74.18855 	(obj:0)
r[0,0,2]                                   48.9509178 	(obj:0)
r[0,1,2]                                   66.7051809 	(obj:0)
r[0,0,3]                               43.17180694584 	(obj:0)
r[0,1,3]                                59.5361133022 	(obj:0)
r[0,0,4]                             37.8388434496212 	(obj:0)
r[0,1,4]                             52.6681465435076 	(obj:0)
r[0,0,5]                             32.9175847353104 	(obj:0)
r[0,1,5]                             46.0886343886803 	(obj:0)
r[0,0,6]                             28.3762471937444 	(obj:0)
r[0,1,6]                             39.7854617443557 	(obj:0)
r[0,0,7]                             24.1855009103874 	(obj:0)
r[0,1,7]                             33.7470223510928 	(obj:0)
r[0,0,8]                             20.3182802401055 	(obj:0)
r[0,1,8]                             27.9621974123469 	(obj:0)
r[0,0,9]                             16.7496090055693 	(obj:0)
r[0,1,9]                             22.4203351210283 	(obj:0)
r[0,0,10]                            13.3877641741372 	(obj:0)
r[0,1,10]                            17.7063977786976 	(obj:0)
r[1,0,0]                                           62 	(obj:0)
r[1,1,0]                                           82 	(obj:0)
r[1,0,1]                                      55.2135 	(obj:0)
r[1,1,1]                                     74.18855 	(obj:0)
r[1,0,2]                                   48.9509178 	(obj:0)
r[1,1,2]                                   66.7051809 	(obj:0)
r[1,0,3]                               43.17180694584 	(obj:0)
r[1,1,3]                                59.5361133022 	(obj:0)
r[1,0,4]                             37.8388434496212 	(obj:0)
r[1,1,4]                             52.6681465435076 	(obj:0)
r[1,0,5]                             32.9175847353104 	(obj:0)
r[1,1,5]                             46.0886343886803 	(obj:0)
r[1,0,6]                             28.3762471937444 	(obj:0)
r[1,1,6]                             39.7854617443557 	(obj:0)
r[1,0,7]                             24.1855009103874 	(obj:0)
r[1,1,7]                             33.7470223510928 	(obj:0)
r[1,0,8]                             20.3182802401055 	(obj:0)
r[1,1,8]                             27.9621974123469 	(obj:0)
r[1,0,9]                             16.7496090055693 	(obj:0)
r[1,1,9]                             22.4203351210283 	(obj:0)
r[1,0,10]                            13.3877641741372 	(obj:0)
r[1,1,10]                            17.7063977786976 	(obj:0)
r[2,0,0]                                           62 	(obj:0)
r[2,1,0]                                           82 	(obj:0)
r[2,0,1]                                      55.2135 	(obj:0)
r[2,1,1]                                     74.18855 	(obj:0)
r[2,0,2]                                   48.9509178 	(obj:0)
r[2,1,2]                                   66.7051809 	(obj:0)
r[2,0,3]                               43.17180694584 	(obj:0)
r[2,1,3]                                59.5361133022 	(obj:0)
r[2,0,4]                             37.8388434496212 	(obj:0)
r[2,1,4]                             52.6681465435076 	(obj:0)
r[2,0,5]                             32.9175847353104 	(obj:0)
r[2,1,5]                             46.0886343886803 	(obj:0)
r[2,0,6]                             28.3762471937444 	(obj:0)
r[2,1,6]                             39.7854617443557 	(obj:0)
r[2,0,7]                             24.1855009103874 	(obj:0)
r[2,1,7]                             33.7470223510928 	(obj:0)
r[2,0,8]                             20.3182802401055 	(obj:0)
r[2,1,8]                             27.9621974123469 	(obj:0)
r[2,0,9]                             16.7496090055693 	(obj:0)
r[2,1,9]                             22.4203351210283 	(obj:0)
r[2,0,10]                            13.3877641741372 	(obj:0)
r[2,1,10]                            17.7063977786976 	(obj:0)
r[3,0,0]                                           62 	(obj:0)
r[3,1,0]                                           82 	(obj:0)
r[3,0,1]                                      55.2135 	(obj:0)
r[3,1,1]                                     74.18855 	(obj:0)
r[3,0,2]                                   48.9509178 	(obj:0)
r[3,1,2]                                   66.7051809 	(obj:0)
r[3,0,3]                               43.17180694584 	(obj:0)
r[3,1,3]                                59.5361133022 	(obj:0)
r[3,0,4]                             37.8388434496212 	(obj:0)
r[3,1,4]                             52.6681465435076 	(obj:0)
r[3,0,5]                             32.9175847353104 	(obj:0)
r[3,1,5]                             46.0886343886803 	(obj:0)
r[3,0,6]                             28.3762471937444 	(obj:0)
r[3,1,6]                             39.7854617443557 	(obj:0)
r[3,0,7]                             24.1855009103874 	(obj:0)
r[3,1,7]                             33.7470223510928 	(obj:0)
r[3,0,8]                             20.3182802401055 	(obj:0)
r[3,1,8]                             27.9621974123469 	(obj:0)
r[3,0,9]                             16.7496090055693 	(obj:0)
r[3,1,9]                             22.4203351210283 	(obj:0)
r[3,0,10]                            13.3877641741372 	(obj:0)
r[3,1,10]                            17.7063977786976 	(obj:0)
r[4,0,0]                                           62 	(obj:0)
r[4,1,0]                                           82 	(obj:0)
r[4,0,1]                                      55.2135 	(obj:0)
r[4,1,1]                                     74.18855 	(obj:0)
r[4,0,2]                                   48.9509178 	(obj:0)
r[4,1,2]                                   66.7051809 	(obj:0)
r[4,0,3]                               43.17180694584 	(obj:0)
r[4,1,3]                                59.5361133022 	(obj:0)
r[4,0,4]                             37.8388434496212 	(obj:0)
r[4,1,4]                             52.6681465435076 	(obj:0)
r[4,0,5]                             32.9175847353104 	(obj:0)
r[4,1,5]                             46.0886343886803 	(obj:0)
r[4,0,6]                             28.3762471937444 	(obj:0)
r[4,1,6]                             39.7854617443557 	(obj:0)
r[4,0,7]                             24.1855009103874 	(obj:0)
r[4,1,7]                             33.7470223510928 	(obj:0)
r[4,0,8]                             20.3182802401055 	(obj:0)
r[4,1,8]                             27.9621974123469 	(obj:0)
r[4,0,9]                             16.7496090055693 	(obj:0)
r[4,1,9]                             22.4203351210283 	(obj:0)
r[4,0,10]                            13.3877641741372 	(obj:0)
r[4,1,10]                            17.7063977786976 	(obj:0)
r[5,0,0]                                           62 	(obj:0)
r[5,1,0]                                           82 	(obj:0)
r[5,0,1]                                      55.2135 	(obj:0)
r[5,1,1]                                     74.18855 	(obj:0)
r[5,0,2]                                   48.9509178 	(obj:0)
r[5,1,2]                                   66.7051809 	(obj:0)
r[5,0,3]                               43.17180694584 	(obj:0)
r[5,1,3]                                59.5361133022 	(obj:0)
r[5,0,4]                             37.8388434496212 	(obj:0)
r[5,1,4]                             52.6681465435076 	(obj:0)
r[5,0,5]                             32.9175847353104 	(obj:0)
r[5,1,5]                             46.0886343886803 	(obj:0)
r[5,0,6]                             28.3762471937444 	(obj:0)
r[5,1,6]                             39.7854617443557 	(obj:0)
r[5,0,7]                             24.1855009103874 	(obj:0)
r[5,1,7]                             33.7470223510928 	(obj:0)
r[5,0,8]                             20.3182802401055 	(obj:0)
r[5,1,8]                             27.9621974123469 	(obj:0)
r[5,0,9]                             16.7496090055693 	(obj:0)
r[5,1,9]                             22.4203351210283 	(obj:0)
r[5,0,10]                            13.3877641741372 	(obj:0)
r[5,1,10]                            17.7063977786976 	(obj:0)
r[6,0,0]                                           62 	(obj:0)
r[6,1,0]                                           82 	(obj:0)
r[6,0,1]                                      55.2135 	(obj:0)
r[6,1,1]                                     74.18855 	(obj:0)
r[6,0,2]                                   48.9509178 	(obj:0)
r[6,1,2]                                   66.7051809 	(obj:0)
r[6,0,3]                               43.17180694584 	(obj:0)
r[6,1,3]                                59.5361133022 	(obj:0)
r[6,0,4]                             37.8388434496212 	(obj:0)
r[6,1,4]                             52.6681465435076 	(obj:0)
r[6,0,5]                             32.9175847353104 	(obj:0)
r[6,1,5]                             46.0886343886803 	(obj:0)
r[6,0,6]                             28.3762471937444 	(obj:0)
r[6,1,6]                             39.7854617443557 	(obj:0)
r[6,0,7]                             24.1855009103874 	(obj:0)
r[6,1,7]                             33.7470223510928 	(obj:0)
r[6,0,8]                             20.3182802401055 	(obj:0)
r[6,1,8]                             27.9621974123469 	(obj:0)
r[6,0,9]                             16.7496090055693 	(obj:0)
r[6,1,9]                             22.4203351210283 	(obj:0)
r[6,0,10]                            13.3877641741372 	(obj:0)
r[6,1,10]                            17.7063977786976 	(obj:0)
r[7,0,0]                                           62 	(obj:0)
r[7,1,0]                                           82 	(obj:0)
r[7,0,1]                                      55.2135 	(obj:0)
r[7,1,1]                                     74.18855 	(obj:0)
r[7,0,2]                                   48.9509178 	(obj:0)
r[7,1,2]                                   66.7051809 	(obj:0)
r[7,0,3]                               43.17180694584 	(obj:0)
r[7,1,3]                                59.5361133022 	(obj:0)
r[7,0,4]                             37.8388434496212 	(obj:0)
r[7,1,4]                             52.6681465435076 	(obj:0)
r[7,0,5]                             32.9175847353104 	(obj:0)
r[7,1,5]                             46.0886343886803 	(obj:0)
r[7,0,6]                             28.3762471937444 	(obj:0)
r[7,1,6]                             39.7854617443557 	(obj:0)
r[7,0,7]                             24.1855009103874 	(obj:0)
r[7,1,7]                             33.7470223510928 	(obj:0)
r[7,0,8]                             20.3182802401055 	(obj:0)
r[7,1,8]                             27.9621974123469 	(obj:0)
r[7,0,9]                             16.7496090055693 	(obj:0)
r[7,1,9]                             22.4203351210283 	(obj:0)
r[7,0,10]                            13.3877641741372 	(obj:0)
r[7,1,10]                            17.7063977786976 	(obj:0)
r[8,0,0]                                           62 	(obj:0)
r[8,1,0]                                           82 	(obj:0)
r[8,0,1]                                      55.2135 	(obj:0)
r[8,1,1]                                     74.18855 	(obj:0)
r[8,0,2]                                   48.9509178 	(obj:0)
r[8,1,2]                                   66.7051809 	(obj:0)
r[8,0,3]                               43.17180694584 	(obj:0)
r[8,1,3]                                59.5361133022 	(obj:0)
r[8,0,4]                             37.8388434496212 	(obj:0)
r[8,1,4]                             52.6681465435076 	(obj:0)
r[8,0,5]                             32.9175847353104 	(obj:0)
r[8,1,5]                             46.0886343886803 	(obj:0)
r[8,0,6]                             28.3762471937444 	(obj:0)
r[8,1,6]                             39.7854617443557 	(obj:0)
r[8,0,7]                             24.1855009103874 	(obj:0)
r[8,1,7]                             33.7470223510928 	(obj:0)
r[8,0,8]                             20.3182802401055 	(obj:0)
r[8,1,8]                             27.9621974123469 	(obj:0)
r[8,0,9]                             16.7496090055693 	(obj:0)
r[8,1,9]                             22.4203351210283 	(obj:0)
r[8,0,10]                            13.3877641741372 	(obj:0)
r[8,1,10]                            17.7063977786976 	(obj:0)
r[9,0,0]                                           62 	(obj:0)
r[9,1,0]                                           82 	(obj:0)
r[9,0,1]                                      55.2135 	(obj:0)
r[9,1,1]                                     74.18855 	(obj:0)
r[9,0,2]                                   48.9509178 	(obj:0)
r[9,1,2]                                   66.7051809 	(obj:0)
r[9,0,3]                               43.17180694584 	(obj:0)
r[9,1,3]                                59.5361133022 	(obj:0)
r[9,0,4]                             37.8388434496212 	(obj:0)
r[9,1,4]                             52.6681465435076 	(obj:0)
r[9,0,5]                             32.9175847353104 	(obj:0)
r[9,1,5]                             46.0886343886803 	(obj:0)
r[9,0,6]                             28.3762471937444 	(obj:0)
r[9,1,6]                             39.7854617443557 	(obj:0)
r[9,0,7]                             24.1855009103874 	(obj:0)
r[9,1,7]                             33.7470223510928 	(obj:0)
r[9,0,8]                             20.3182802401055 	(obj:0)
r[9,1,8]                             27.9621974123469 	(obj:0)
r[9,0,9]                             16.7496090055693 	(obj:0)
r[9,1,9]                             22.4203351210283 	(obj:0)
r[9,0,10]                            13.3877641741372 	(obj:0)
r[9,1,10]                            17.7063977786976 	(obj:0)
r[10,0,0]                                          76 	(obj:0)
r[10,1,0]                                          83 	(obj:0)
r[10,2,0]                                          69 	(obj:0)
r[10,0,1]                                     71.6597 	(obj:0)
r[10,1,1]                                    72.74935 	(obj:0)
r[10,0,2]                                 67.43485198 	(obj:0)
r[10,1,2]                                63.139365625 	(obj:0)
r[10,0,3]                             63.322384917332 	(obj:0)
r[10,1,3]                            54.1300052734375 	(obj:0)
r[10,0,4]                             59.319309478531 	(obj:0)
r[10,1,4]                            45.6837299438476 	(obj:0)
r[10,0,5]                            34.3211606809636 	(obj:0)
r[10,1,5]                            37.7653468223572 	(obj:0)
r[10,0,6]                            31.0895178068499 	(obj:0)
r[10,1,6]                            30.3418626459598 	(obj:0)
r[10,0,7]                            27.9438366331877 	(obj:0)
r[10,1,7]                            23.3823462305874 	(obj:0)
r[10,0,8]                            24.8818305787449 	(obj:0)
r[10,1,8]                            16.8577995911756 	(obj:0)
r[10,0,9]                            21.9012738853503 	(obj:0)
r[10,1,9]                            10.7410371167272 	(obj:0)
r[11,0,0]                                          76 	(obj:0)
r[11,1,0]                                          83 	(obj:0)
r[11,2,0]                                          69 	(obj:0)
r[11,0,1]                                     71.6597 	(obj:0)
r[11,1,1]                                    72.74935 	(obj:0)
r[11,2,1]                            6.46648399260565 	(obj:0)
r[11,0,2]                                 67.43485198 	(obj:0)
r[11,1,2]                                63.139365625 	(obj:0)
r[11,2,2]                            6.33844760955206 	(obj:0)
r[11,0,3]                             63.322384917332 	(obj:0)
r[11,1,3]                            54.1300052734375 	(obj:0)
r[11,2,3]                            5.79276802241249 	(obj:0)
r[11,0,4]                             59.319309478531 	(obj:0)
r[11,1,4]                            45.6837299438476 	(obj:0)
r[11,2,4]                            3.51816761089131 	(obj:0)
r[11,0,5]                            34.3211606809636 	(obj:0)
r[11,1,5]                            37.7653468223572 	(obj:0)
r[11,2,5]                            3.30523048534048 	(obj:0)
r[11,0,6]                            31.0895178068499 	(obj:0)
r[11,1,6]                            30.3418626459598 	(obj:0)
r[11,2,6]                            3.11207593074506 	(obj:0)
r[11,0,7]                            27.9438366331877 	(obj:0)
r[11,1,7]                            23.3823462305874 	(obj:0)
r[11,2,7]                            3.05045682731631 	(obj:0)
r[11,0,8]                            24.8818305787449 	(obj:0)
r[11,1,8]                            16.8577995911756 	(obj:0)
r[11,2,8]                            2.87991344692627 	(obj:0)
r[11,0,9]                            21.9012738853503 	(obj:0)
r[11,1,9]                            10.7410371167272 	(obj:0)
r[11,2,9]                            2.72385138186479 	(obj:0)
r[11,0,10]                           3.33355344643953 	(obj:0)
r[11,1,10]                           3.64059126387475 	(obj:0)
r[11,2,10]                           2.42121250320345 	(obj:0)
r[12,0,0]                                          76 	(obj:0)
r[12,1,0]                                          83 	(obj:0)
r[12,2,0]                                          69 	(obj:0)
r[12,0,1]                                     71.6597 	(obj:0)
r[12,1,1]                                    72.74935 	(obj:0)
r[12,2,1]                            11.1871084424057 	(obj:0)
r[12,0,2]                                 67.43485198 	(obj:0)
r[12,1,2]                                63.139365625 	(obj:0)
r[12,2,2]                            10.9656036952461 	(obj:0)
r[12,0,3]                             63.322384917332 	(obj:0)
r[12,1,3]                            54.1300052734375 	(obj:0)
r[12,2,3]                             10.423599222769 	(obj:0)
r[12,0,4]                             59.319309478531 	(obj:0)
r[12,1,4]                            45.6837299438476 	(obj:0)
r[12,2,4]                            10.1866187908991 	(obj:0)
r[12,0,5]                            34.3211606809636 	(obj:0)
r[12,1,5]                            37.7653468223572 	(obj:0)
r[12,2,5]                            9.65272051677349 	(obj:0)
r[12,0,6]                            31.0895178068499 	(obj:0)
r[12,1,6]                            30.3418626459598 	(obj:0)
r[12,2,6]                            8.56642301234151 	(obj:0)
r[12,0,7]                            27.9438366331877 	(obj:0)
r[12,1,7]                            23.3823462305874 	(obj:0)
r[12,2,7]                            6.76777715939602 	(obj:0)
r[12,0,8]                            24.8818305787449 	(obj:0)
r[12,1,8]                            16.8577995911756 	(obj:0)
r[12,2,8]                            6.16067087495217 	(obj:0)
r[12,0,9]                            21.9012738853503 	(obj:0)
r[12,1,9]                            10.7410371167272 	(obj:0)
r[12,2,9]                             5.6396329780448 	(obj:0)
r[12,0,10]                           7.14302069961599 	(obj:0)
r[12,1,10]                           7.80093050089641 	(obj:0)
r[12,2,10]                           5.18808871866846 	(obj:0)
r[13,0,0]                                          76 	(obj:0)
r[13,1,0]                                          83 	(obj:0)
r[13,2,0]                                          69 	(obj:0)
r[13,0,1]                                     71.6597 	(obj:0)
r[13,1,1]                                    72.74935 	(obj:0)
r[13,0,2]                                 67.43485198 	(obj:0)
r[13,1,2]                                63.139365625 	(obj:0)
r[13,0,3]                             63.322384917332 	(obj:0)
r[13,1,3]                            54.1300052734375 	(obj:0)
r[13,0,4]                             59.319309478531 	(obj:0)
r[13,1,4]                            45.6837299438476 	(obj:0)
r[13,0,5]                            34.3211606809636 	(obj:0)
r[13,1,5]                            37.7653468223572 	(obj:0)
r[13,0,6]                            31.0895178068499 	(obj:0)
r[13,1,6]                            30.3418626459598 	(obj:0)
r[13,0,7]                            27.9438366331877 	(obj:0)
r[13,1,7]                            23.3823462305874 	(obj:0)
r[13,0,8]                            24.8818305787449 	(obj:0)
r[13,1,8]                            16.8577995911756 	(obj:0)
r[13,0,9]                            21.9012738853503 	(obj:0)
r[13,1,9]                            10.7410371167272 	(obj:0)
r[14,0,0]                                          76 	(obj:0)
r[14,1,0]                                          83 	(obj:0)
r[14,2,0]                                          69 	(obj:0)
r[14,0,1]                                     71.6597 	(obj:0)
r[14,1,1]                                    72.74935 	(obj:0)
r[14,0,2]                                 67.43485198 	(obj:0)
r[14,1,2]                                63.139365625 	(obj:0)
r[14,0,3]                             63.322384917332 	(obj:0)
r[14,1,3]                            54.1300052734375 	(obj:0)
r[14,0,4]                             59.319309478531 	(obj:0)
r[14,1,4]                            45.6837299438476 	(obj:0)
r[14,0,5]                            34.3211606809636 	(obj:0)
r[14,1,5]                            37.7653468223572 	(obj:0)
